543 5
10 10 10 10 10 

0 0 0 0 0 0 5 2 14 26 38 50 
0 0 0 0 0 0 5 3 4 5 9 12 
4 0 0 0 1 0 3 8 7 6 
5 0 0 0 1 0 2 7 6 
2 0 0 0 2 0 2 10 7 
4 0 0 0 1 0 2 11 10 
1 0 0 0 4 0 1 11 
2 0 0 0 3 0 1 10 
9 0 0 0 3 0 1 10 
2 0 0 0 2 0 1 13 
9 0 0 0 3 0 1 13 
1 0 0 0 5 0 1 13 
0 0 0 0 0 0 1 62 
0 0 0 0 0 0 4 15 16 17 19 
3 0 0 0 0 1 5 24 23 22 20 18 
4 0 0 0 0 2 2 22 20 
6 0 0 0 0 2 1 18 
8 0 0 0 0 2 1 21 
4 0 0 0 0 3 1 20 
3 0 0 0 0 3 1 25 
2 0 0 0 0 3 1 25 
6 0 0 0 0 1 1 25 
5 0 0 0 0 4 1 25 
10 0 0 0 0 4 1 25 
0 0 0 0 0 0 1 62 
0 0 0 0 0 0 4 27 28 29 31 
9 0 0 0 1 0 4 36 35 34 30 
10 0 0 0 4 0 5 36 35 34 33 32 
7 0 0 0 4 0 2 35 30 
8 0 0 0 3 0 2 33 32 
2 0 0 0 3 0 2 34 32 
9 0 0 0 2 0 1 37 
4 0 0 0 2 0 1 37 
6 0 0 0 1 0 1 37 
9 0 0 0 4 0 1 37 
2 0 0 0 1 0 1 37 
0 0 0 0 0 0 1 62 
0 0 0 0 0 0 4 39 40 42 43 
8 0 1 0 0 0 2 48 41 
3 0 3 0 0 0 4 48 47 45 44 
3 0 2 0 0 0 3 46 45 44 
7 0 5 0 0 0 3 47 45 44 
10 0 2 0 0 0 1 46 
4 0 1 0 0 0 1 49 
2 0 2 0 0 0 1 49 
7 0 5 0 0 0 1 49 
2 0 3 0 0 0 1 49 
1 0 1 0 0 0 1 49 
0 0 0 0 0 0 1 62 
0 0 0 0 0 0 5 51 52 53 55 56 
5 0 1 0 0 0 3 59 58 54 
1 0 4 0 0 0 3 59 58 57 
6 0 5 0 0 0 2 59 57 
10 0 3 0 0 0 1 57 
1 0 1 0 0 0 1 60 
9 0 3 0 0 0 1 58 
7 0 2 0 0 0 1 61 
2 0 2 0 0 0 1 61 
1 0 2 0 0 0 1 61 
10 0 2 0 0 0 1 61 
0 0 0 0 0 0 1 62 
0 0 0 0 0 0 5 63 105 117 159 201 
0 0 0 0 0 0 3 64 68 70 
6 1 1 1 0 1 4 73 67 66 65 
4 3 4 1 0 3 7 92 80 78 77 76 74 72 
6 2 3 2 0 1 2 75 69 
1 2 2 2 0 3 5 97 80 75 74 71 
6 3 2 2 0 1 4 80 78 74 71 
1 2 4 2 0 1 4 97 80 74 71 
8 2 3 2 0 2 4 77 74 73 72 
2 2 1 3 0 1 9 92 89 88 84 83 82 81 79 77 
10 2 3 2 0 2 8 89 88 87 85 84 83 82 79 
4 3 3 4 0 2 4 92 89 85 75 
2 5 1 3 0 4 5 89 88 87 86 85 
4 2 2 3 0 3 4 88 84 81 79 
10 3 6 5 0 2 5 90 89 88 87 84 
6 2 3 2 0 3 3 87 86 85 
3 2 3 2 0 4 3 97 87 81 
10 5 3 2 0 6 3 98 90 86 
4 2 3 6 0 2 2 87 85 
7 3 2 2 0 2 3 103 96 90 
3 2 3 3 0 4 3 103 98 90 
4 4 1 2 0 4 3 103 96 90 
6 6 2 3 0 3 3 103 96 91 
6 2 1 3 0 2 2 103 90 
2 3 2 2 0 3 3 96 94 93 
1 3 5 1 0 3 2 98 91 
3 2 1 3 0 3 4 103 102 96 95 
3 1 2 2 0 2 2 95 93 
4 4 1 1 0 2 1 91 
7 2 4 5 0 3 3 102 95 94 
1 2 3 2 0 2 1 93 
4 1 3 2 0 2 4 103 102 100 99 
6 1 1 1 0 4 3 101 100 99 
1 1 3 3 0 4 2 101 100 
6 2 1 2 0 1 2 100 99 
3 3 4 3 0 1 2 101 99 
5 2 2 3 0 3 1 101 
8 2 3 2 0 1 1 104 
1 3 2 2 0 2 1 104 
6 3 1 3 0 3 1 104 
8 4 2 3 0 3 1 104 
7 1 4 3 0 2 1 104 
0 0 0 0 0 0 1 543 
0 0 0 0 0 0 3 106 108 115 
8 0 1 0 0 0 4 114 113 112 107 
2 0 1 0 0 0 3 111 110 109 
1 0 6 0 0 0 1 109 
6 0 3 0 0 0 1 116 
9 0 2 0 0 0 1 116 
2 0 2 0 0 0 1 116 
2 0 2 0 0 0 1 116 
3 0 4 0 0 0 1 116 
9 0 2 0 0 0 1 116 
6 0 2 0 0 0 1 116 
0 0 0 0 0 0 5 243 275 307 319 351 
0 0 0 0 0 0 3 118 122 124 
4 1 1 0 1 1 4 127 121 120 119 
1 2 1 0 4 2 2 128 123 
10 1 1 0 1 3 6 146 134 132 131 130 126 
6 4 2 0 1 1 5 157 134 129 128 125 
7 1 2 0 1 4 4 134 132 129 125 
8 1 2 0 1 4 4 157 134 129 125 
4 1 4 0 2 1 4 130 129 127 126 
5 4 4 0 3 6 9 146 143 141 138 137 136 135 133 130 
5 1 2 0 2 2 8 143 141 140 139 138 137 136 133 
7 3 3 0 2 5 3 146 139 128 
6 2 1 0 5 2 4 141 138 135 133 
5 3 4 0 4 2 4 143 141 140 139 
7 2 3 0 3 2 3 142 140 139 
7 6 3 0 1 2 4 151 143 141 138 
4 3 3 0 4 2 3 157 140 135 
1 4 2 0 2 4 3 151 144 142 
7 2 3 0 4 2 2 140 139 
9 3 2 0 3 3 3 156 150 144 
9 1 2 0 3 1 3 156 151 144 
7 2 3 0 5 2 3 156 150 144 
5 4 4 0 3 1 3 156 150 145 
7 3 2 0 3 2 2 156 144 
9 2 2 0 1 2 2 151 145 
5 2 2 0 2 4 4 156 155 150 148 
8 3 2 0 1 4 3 154 150 147 
2 4 3 0 2 4 2 148 147 
6 1 2 0 3 1 1 145 
5 3 4 0 3 2 3 155 149 148 
10 3 2 0 4 1 1 147 
7 2 3 0 5 5 4 156 155 153 152 
7 2 1 0 2 3 2 154 152 
10 3 2 0 2 2 2 153 152 
6 1 4 0 3 2 2 153 152 
2 1 1 0 3 4 1 154 
3 3 3 0 1 1 1 158 
8 4 4 0 2 2 1 158 
4 2 1 0 1 2 1 158 
10 5 2 0 3 3 1 158 
6 3 4 0 3 1 1 158 
4 2 4 0 1 3 1 158 
0 0 0 0 0 0 1 543 
0 0 0 0 0 0 6 160 164 165 167 170 173 
6 0 1 1 1 1 3 168 163 161 
1 0 2 2 3 1 4 182 176 169 162 
6 0 1 3 1 3 8 199 192 185 184 178 177 174 166 
4 0 3 3 1 2 9 199 187 185 184 183 177 175 174 171 
7 0 2 1 3 2 9 192 186 185 184 183 179 176 174 172 
8 0 3 1 3 1 4 187 178 172 168 
7 0 4 2 2 1 6 198 187 186 183 179 172 
1 0 4 1 6 2 6 192 189 184 178 176 175 
7 0 2 1 3 3 5 189 183 182 176 174 
10 0 2 1 4 5 5 192 191 186 184 175 
10 0 5 1 3 2 4 198 197 185 180 
1 0 1 7 3 6 3 198 197 176 
8 0 1 6 1 2 2 191 175 
3 0 4 3 1 2 4 192 191 188 186 
5 0 1 2 5 4 3 198 197 181 
10 0 1 2 2 3 2 197 180 
9 0 2 3 1 4 2 191 180 
5 0 1 3 1 2 2 198 180 
8 0 5 1 3 3 2 191 181 
10 0 1 1 1 3 2 197 181 
9 0 2 4 5 5 1 181 
3 0 3 1 2 2 3 195 190 188 
4 0 2 2 3 2 2 188 185 
4 0 7 2 1 1 4 197 195 194 191 
5 0 4 3 3 1 4 198 196 194 193 
3 0 4 1 4 3 3 196 194 191 
8 0 1 1 2 2 2 193 189 
8 0 2 3 1 4 1 189 
1 0 1 3 4 4 2 196 194 
3 0 1 3 2 4 2 197 195 
10 0 3 2 2 2 1 193 
10 0 4 2 2 3 1 193 
2 0 4 6 4 4 1 194 
8 0 3 2 3 1 1 200 
8 0 1 3 3 3 1 200 
8 0 2 2 2 1 1 200 
6 0 2 1 2 2 1 200 
9 0 3 5 3 1 1 200 
8 0 4 4 1 2 1 200 
10 0 1 5 3 1 1 200 
0 0 0 0 0 0 1 543 
0 0 0 0 0 0 6 202 206 207 209 214 222 
5 1 1 1 1 0 3 210 205 203 
9 2 2 1 2 0 4 224 217 211 204 
2 2 3 1 2 0 8 241 234 231 226 223 218 215 208 
10 1 4 1 1 0 9 241 231 228 226 225 218 216 215 213 
3 2 2 3 3 0 3 228 223 210 
7 2 3 2 6 0 6 234 231 227 226 219 212 
5 2 2 4 1 0 6 239 228 227 225 219 212 
7 5 3 3 2 0 6 234 231 230 223 217 216 
7 2 4 2 4 0 5 230 225 224 217 215 
10 1 2 1 2 0 5 239 234 233 227 216 
4 4 2 1 2 0 2 233 216 
8 4 3 3 3 0 2 239 217 
2 2 3 1 1 0 2 226 220 
9 3 3 3 2 0 3 240 239 221 
9 4 3 3 2 0 2 240 220 
4 3 3 5 5 0 2 233 220 
3 3 2 2 3 0 2 239 220 
7 1 2 1 1 0 2 240 221 
3 3 2 2 2 0 1 221 
3 2 3 2 1 0 3 236 232 229 
2 2 3 4 1 0 2 234 227 
9 4 2 2 5 0 4 238 236 235 232 
5 2 2 1 2 0 2 235 226 
9 1 2 3 2 0 3 240 237 236 
9 3 1 2 2 0 2 238 233 
8 4 3 2 1 0 1 230 
9 4 2 4 3 0 1 230 
1 3 4 2 2 0 2 238 235 
4 3 2 4 3 0 2 240 236 
3 2 1 2 3 0 2 239 235 
8 2 3 3 3 0 1 237 
7 4 1 3 3 0 1 237 
3 2 2 2 2 0 1 235 
10 2 3 4 3 0 1 242 
6 2 1 6 2 0 1 242 
7 3 2 4 4 0 1 242 
3 2 2 1 5 0 1 242 
8 2 4 1 2 0 1 242 
3 1 4 5 1 0 1 242 
3 3 4 3 5 0 1 242 
0 0 0 0 0 0 1 543 
0 0 0 0 0 0 6 244 245 246 247 250 273 
10 0 1 0 1 1 4 272 254 251 248 
6 0 3 0 4 4 4 257 255 254 248 
5 0 3 0 3 2 4 257 251 249 248 
7 0 2 0 3 2 4 264 259 254 252 
6 0 6 0 5 2 3 263 259 252 
4 0 4 0 1 1 4 269 268 255 253 
8 0 3 0 2 3 5 271 268 258 257 255 
2 0 2 0 3 2 5 268 267 263 262 258 
4 0 2 0 1 1 3 268 267 253 
8 0 2 0 1 3 3 270 262 258 
9 0 4 0 3 4 2 263 256 
4 0 2 0 2 3 3 267 262 260 
7 0 3 0 4 2 1 258 
2 0 1 0 3 3 2 267 261 
8 0 3 0 2 3 1 260 
3 0 1 0 6 2 2 269 266 
4 0 1 0 1 1 1 261 
2 0 5 0 4 1 1 265 
5 0 3 0 3 3 1 266 
1 0 3 0 3 3 1 269 
9 0 2 0 2 1 1 268 
10 0 1 0 2 3 1 274 
7 0 2 0 3 2 1 274 
1 0 2 0 1 2 1 274 
3 0 1 0 2 3 1 274 
3 0 2 0 3 4 1 274 
4 0 2 0 3 6 1 274 
10 0 2 0 1 1 1 274 
10 0 2 0 2 5 1 274 
6 0 5 0 1 2 1 274 
0 0 0 0 0 0 1 543 
0 0 0 0 0 0 6 276 277 278 279 280 305 
7 0 0 1 1 1 5 287 284 283 282 281 
7 0 0 6 3 5 5 290 287 284 282 281 
5 0 0 2 2 2 5 304 285 284 282 281 
8 0 0 4 2 1 4 291 284 283 281 
7 0 0 4 5 2 2 303 283 
2 0 0 1 3 2 3 293 289 286 
6 0 0 1 1 4 3 293 291 288 
2 0 0 2 3 4 3 302 290 285 
6 0 0 2 3 3 2 293 288 
7 0 0 2 2 3 1 288 
6 0 0 2 2 2 1 288 
3 0 0 1 1 2 1 288 
7 0 0 3 1 4 5 301 300 299 296 292 
9 0 0 2 5 2 5 302 300 299 296 292 
1 0 0 5 2 4 5 301 300 299 298 292 
4 0 0 3 2 1 2 302 292 
5 0 0 3 2 2 1 294 
6 0 0 3 2 1 2 302 298 
4 0 0 2 4 3 1 295 
9 0 0 2 7 1 1 297 
10 0 0 4 3 1 1 298 
7 0 0 2 3 1 1 306 
5 0 0 4 3 4 1 306 
8 0 0 2 1 3 1 306 
2 0 0 1 1 1 1 306 
1 0 0 1 2 1 1 306 
7 0 0 3 3 3 1 306 
9 0 0 1 2 7 1 306 
7 0 0 4 1 2 1 306 
6 0 0 2 3 3 1 306 
0 0 0 0 0 0 1 543 
0 0 0 0 0 0 4 308 309 310 317 
2 0 0 1 0 0 4 316 313 312 311 
8 0 0 1 0 0 3 316 313 311 
4 0 0 2 0 0 3 316 312 311 
8 0 0 5 0 0 2 315 314 
7 0 0 2 0 0 1 315 
1 0 0 3 0 0 1 314 
10 0 0 3 0 0 1 318 
7 0 0 2 0 0 1 318 
9 0 0 3 0 0 1 318 
6 0 0 3 0 0 1 318 
0 0 0 0 0 0 5 383 395 417 439 461 
0 0 0 0 0 0 6 320 321 322 323 324 349 
9 0 1 1 1 0 5 333 328 327 326 325 
1 0 4 3 2 0 5 333 332 328 326 325 
10 0 2 2 1 0 5 341 329 328 326 325 
7 0 2 2 1 0 4 335 328 327 325 
1 0 1 2 4 0 2 348 327 
8 0 1 5 4 0 2 331 330 
3 0 1 2 2 0 3 336 335 334 
1 0 4 2 1 0 2 332 329 
9 0 4 1 1 0 2 336 334 
2 0 1 5 4 0 2 345 334 
1 0 4 3 4 0 2 345 334 
9 0 3 4 4 0 4 346 340 337 336 
8 0 4 3 3 0 1 334 
2 0 4 3 2 0 1 334 
7 0 3 4 2 0 5 347 346 344 340 337 
5 0 1 1 2 0 3 345 343 337 
7 0 2 4 2 0 3 345 344 343 
5 0 3 1 3 0 1 338 
5 0 5 3 2 0 1 339 
4 0 2 3 3 0 1 342 
8 0 1 3 1 0 1 343 
5 0 3 2 1 0 1 345 
4 0 2 2 4 0 1 350 
2 0 3 4 5 0 1 350 
3 0 1 2 3 0 1 350 
10 0 4 2 4 0 1 350 
8 0 3 1 1 0 1 350 
5 0 3 2 1 0 1 350 
4 0 1 2 4 0 1 350 
10 0 2 1 3 0 1 350 
0 0 0 0 0 0 1 543 
0 0 0 0 0 0 6 352 353 354 355 358 381 
6 1 0 1 0 1 4 365 363 362 356 
8 1 0 5 0 2 4 365 359 357 356 
9 4 0 6 0 2 5 380 371 363 360 359 
5 3 0 3 0 3 6 376 372 371 370 363 360 
4 4 0 4 0 2 4 376 371 370 360 
8 4 0 5 0 3 4 377 375 362 361 
3 1 0 1 0 1 5 379 375 366 365 362 
7 2 0 2 0 3 5 376 375 370 369 366 
1 1 0 1 0 2 2 375 361 
7 6 0 2 0 1 3 378 369 366 
8 2 0 1 0 2 3 376 369 367 
4 3 0 4 0 2 2 377 364 
6 2 0 3 0 5 1 366 
5 3 0 3 0 3 2 376 368 
10 4 0 1 0 1 1 367 
1 1 0 2 0 3 1 368 
2 4 0 4 0 3 1 373 
9 1 0 2 0 2 1 374 
8 2 0 2 0 3 1 377 
10 3 0 1 0 3 1 377 
6 2 0 4 0 3 1 375 
10 1 0 3 0 3 1 382 
4 1 0 1 0 1 1 382 
7 1 0 1 0 3 1 382 
5 5 0 2 0 4 1 382 
2 3 0 1 0 4 1 382 
3 2 0 4 0 2 1 382 
5 3 0 2 0 2 1 382 
1 2 0 2 0 3 1 382 
10 3 0 2 0 3 1 382 
0 0 0 0 0 0 1 543 
0 0 0 0 0 0 4 384 385 386 393 
10 1 0 0 0 0 4 392 391 390 388 
8 4 0 0 0 0 3 391 390 389 
5 3 0 0 0 0 1 387 
9 2 0 0 0 0 2 390 389 
8 4 0 0 0 0 1 389 
7 1 0 0 0 0 1 394 
5 2 0 0 0 0 1 394 
10 2 0 0 0 0 1 394 
1 5 0 0 0 0 1 394 
2 1 0 0 0 0 1 394 
0 0 0 0 0 0 5 483 495 507 519 531 
0 0 0 0 0 0 6 396 399 400 403 414 415 
7 0 1 0 0 1 3 413 404 397 
1 0 3 0 0 2 4 412 410 405 398 
6 0 3 0 0 2 3 411 406 402 
1 0 1 0 0 7 2 404 401 
10 0 2 0 0 3 4 409 408 407 404 
3 0 1 0 0 2 3 410 407 405 
8 0 3 0 0 2 3 409 408 407 
5 0 2 0 0 4 1 404 
9 0 7 0 0 2 1 406 
7 0 1 0 0 3 1 406 
10 0 4 0 0 3 1 416 
4 0 1 0 0 3 1 416 
3 0 1 0 0 1 1 416 
6 0 3 0 0 1 1 416 
2 0 3 0 0 4 1 416 
8 0 2 0 0 2 1 416 
8 0 4 0 0 1 1 416 
10 0 4 0 0 2 1 416 
6 0 1 0 0 2 1 416 
6 0 3 0 0 3 1 416 
0 0 0 0 0 0 1 543 
0 0 0 0 0 0 9 418 419 421 422 423 425 429 436 437 
5 1 0 0 0 1 3 435 434 420 
1 4 0 0 0 2 4 434 433 428 427 
3 2 0 0 0 1 2 431 424 
1 4 0 0 0 2 3 432 431 430 
9 1 0 0 0 4 2 433 426 
5 4 0 0 0 2 2 431 426 
4 2 0 0 0 4 1 426 
5 2 0 0 0 2 1 427 
4 1 0 0 0 3 1 430 
3 1 0 0 0 4 1 430 
3 2 0 0 0 1 1 430 
6 5 0 0 0 1 1 432 
2 2 0 0 0 3 1 438 
8 3 0 0 0 1 1 438 
1 4 0 0 0 2 1 438 
4 1 0 0 0 3 1 438 
9 3 0 0 0 3 1 438 
5 3 0 0 0 4 1 438 
1 4 0 0 0 3 1 438 
1 1 0 0 0 4 1 438 
0 0 0 0 0 0 1 543 
0 0 0 0 0 0 4 440 441 442 443 
9 1 0 1 0 0 5 451 450 448 447 446 
1 4 0 3 0 0 4 450 448 446 444 
9 2 0 3 0 0 4 450 446 445 444 
1 2 0 4 0 0 3 447 445 444 
4 2 0 4 0 0 4 453 452 451 449 
1 2 0 2 0 0 4 453 452 451 449 
8 1 0 2 0 0 3 453 452 449 
2 1 0 2 0 0 2 453 449 
8 5 0 2 0 0 2 452 449 
7 2 0 3 0 0 5 459 458 457 455 454 
1 2 0 2 0 0 5 459 458 457 455 454 
4 3 0 4 0 0 4 459 457 455 454 
6 2 0 3 0 0 3 458 457 454 
4 7 0 3 0 0 3 458 457 456 
4 2 0 2 0 0 1 456 
6 3 0 1 0 0 1 456 
6 2 0 2 0 0 1 460 
3 4 0 2 0 0 1 460 
7 1 0 4 0 0 1 460 
9 2 0 1 0 0 1 460 
0 0 0 0 0 0 1 543 
0 0 0 0 0 0 5 462 463 465 466 467 
5 0 1 0 1 0 3 470 469 468 
9 0 2 0 1 0 2 471 464 
10 0 5 0 2 0 4 476 473 472 470 
3 0 3 0 1 0 4 476 473 472 470 
3 0 3 0 1 0 3 474 473 471 
10 0 2 0 4 0 2 471 470 
9 0 5 0 1 0 4 480 476 474 473 
10 0 1 0 2 0 4 481 480 473 472 
1 0 2 0 5 0 4 480 479 475 474 
6 0 1 0 4 0 3 480 476 472 
5 0 3 0 3 0 3 479 477 475 
9 0 2 0 2 0 3 479 477 475 
9 0 3 0 1 0 3 481 478 477 
2 0 2 0 3 0 1 478 
9 0 3 0 3 0 1 477 
2 0 3 0 4 0 1 482 
10 0 1 0 1 0 1 482 
10 0 3 0 3 0 1 482 
1 0 3 0 4 0 1 482 
6 0 2 0 4 0 1 482 
0 0 0 0 0 0 1 543 
0 0 0 0 0 0 5 484 486 487 492 493 
8 0 0 1 0 0 2 491 485 
10 0 0 2 0 0 2 490 489 
4 0 0 4 0 0 1 488 
8 0 0 4 0 0 1 488 
6 0 0 3 0 0 1 494 
10 0 0 2 0 0 1 494 
5 0 0 1 0 0 1 494 
8 0 0 3 0 0 1 494 
4 0 0 4 0 0 1 494 
7 0 0 1 0 0 1 494 
0 0 0 0 0 0 1 543 
0 0 0 0 0 0 5 496 497 498 499 505 
5 0 0 1 0 0 3 504 502 501 
3 0 0 2 0 0 2 504 501 
8 0 0 4 0 0 2 504 500 
9 0 0 3 0 0 2 504 500 
4 0 0 2 0 0 1 503 
6 0 0 1 0 0 1 503 
10 0 0 2 0 0 1 503 
1 0 0 4 0 0 1 506 
5 0 0 3 0 0 1 506 
1 0 0 3 0 0 1 506 
0 0 0 0 0 0 1 543 
0 0 0 0 0 0 6 508 509 510 511 513 515 
8 1 0 0 0 0 2 514 512 
10 2 0 0 0 0 2 514 512 
8 3 0 0 0 0 2 514 512 
1 3 0 0 0 0 2 514 512 
1 3 0 0 0 0 2 517 516 
1 4 0 0 0 0 2 517 516 
2 3 0 0 0 0 1 517 
5 2 0 0 0 0 1 516 
4 1 0 0 0 0 1 518 
9 3 0 0 0 0 1 518 
0 0 0 0 0 0 1 543 
0 0 0 0 0 0 7 520 521 522 526 527 528 529 
10 0 1 0 0 0 2 525 523 
2 0 2 0 0 0 1 523 
8 0 1 0 0 0 1 523 
2 0 2 0 0 0 1 524 
2 0 3 0 0 0 1 530 
2 0 1 0 0 0 1 530 
2 0 4 0 0 0 1 530 
5 0 5 0 0 0 1 530 
6 0 3 0 0 0 1 530 
6 0 3 0 0 0 1 530 
0 0 0 0 0 0 1 543 
0 0 0 0 0 0 5 532 533 534 535 541 
3 1 0 0 0 0 3 540 538 537 
9 1 0 0 0 0 2 540 536 
6 1 0 0 0 0 2 540 539 
4 2 0 0 0 0 2 540 539 
1 2 0 0 0 0 1 539 
1 8 0 0 0 0 1 539 
1 2 0 0 0 0 1 539 
6 4 0 0 0 0 1 542 
5 2 0 0 0 0 1 542 
5 2 0 0 0 0 1 542 
0 0 0 0 0 0 1 543 
0 0 0 0 0 0 0 
